AME : levi30_10
COMMENT : 30: 30x24 -city problem (levikoppenhol)
TYPE : TSP
DIMENSION : 30
EDGE_WEIGHT_TYPE : EUC_2D
NODE_COORD_SECTION
1 4 11
2 15 21
3 22 13
4 4 21
5 0 30
6 9 21
7 21 11
8 7 2
9 1 7
10 0 1
11 5 12
12 1 23
13 5 6
14 2 24
15 20 27
16 12 8
17 11 11
18 11 3
19 17 15
20 0 6
21 20 14
22 10 22
23 3 2
24 20 13
25 1 0
26 8 22
27 10 13
28 19 19
29 3 1
30 1 27
EOF